networks/zoo_164_2657/zoo_164_2657-lower.txt
Number of groups: 82
Flow 1: {1 76 0} {76 77 0} {77 67 0} {67 149 0} 
Flow 2: {76 75 0} {75 68 0} {68 150 0} 
Flow 3: {75 157 0} 
Flow 4: {76 158 0} 
Flow 5: {77 159 0} 
Flow 6: {2 76 0} {77 35 0} {35 117 0} 
Flow 12: {3 76 0} Flow 13: {77 50 0} {50 132 0} 
Flow 19: {76 3 0} {3 85 0} 
Flow 19: {4 76 0} Flow 20: {77 6 0} {6 88 0} 
Flow 21: {76 7 0} {7 89 0} 
Flow 22: {77 8 0} {8 90 0} 
Flow 23: {77 9 0} {9 91 0} 
Flow 24: {75 12 0} {12 94 0} 
Flow 25: {77 14 0} {14 96 0} 
Flow 26: {77 15 0} {15 97 0} 
Flow 27: {77 17 0} {17 99 0} 
Flow 28: {77 20 0} {20 102 0} 
Flow 29: {77 21 0} {21 103 0} 
Flow 30: {77 22 0} {22 104 0} 
Flow 31: {77 25 0} {25 107 0} 
Flow 32: {77 26 0} {26 108 0} 
Flow 33: {77 30 0} {30 112 0} 
Flow 34: {77 31 0} {31 113 0} 
Flow 35: {77 33 0} {33 115 0} 
Flow 36: {77 34 0} {34 116 0} 
Flow 38: {77 36 0} {36 118 0} 
Flow 39: {77 37 0} {37 119 0} 
Flow 40: {50 38 0} {38 120 0} 
Flow 41: {77 45 0} {45 41 0} {41 123 0} 
Flow 42: {77 43 0} {43 125 0} 
Flow 43: {77 44 0} {44 126 0} 
Flow 44: {77 46 0} {46 128 0} 
Flow 45: {77 47 0} {47 129 0} 
Flow 46: {77 48 0} {48 130 0} 
Flow 48: {77 51 0} {51 133 0} 
Flow 49: {75 52 0} {52 134 0} 
Flow 50: {77 57 0} {57 139 0} 
Flow 51: {77 62 0} {62 144 0} 
Flow 52: {77 63 0} {63 145 0} 
Flow 53: {77 65 0} {65 147 0} 
Flow 56: {77 69 0} {69 151 0} 
Flow 57: {77 70 0} {70 152 0} 
Flow 58: {76 71 0} {71 153 0} 
Flow 59: {76 72 0} {72 154 0} 
Flow 60: {77 74 0} {74 156 0} 
Flow 64: {75 78 0} {78 160 0} 
Flow 65: {75 80 0} {80 162 0} 
Flow 66: {75 81 0} {81 163 0} 
Flow 67: {5 77 0} {77 76 0} Flow 72: {77 10 0} {10 92 0} 
Flow 73: {77 75 0} Flow 76: {77 16 0} {16 98 0} 
Flow 78: {77 18 0} {18 100 0} 
Flow 79: {77 19 0} {19 101 0} 
Flow 85: {75 29 0} {29 111 0} 
Flow 103: {77 54 0} {54 136 0} 
Flow 119: {75 79 0} {79 161 0} 
Flow 122: {6 77 0} Flow 127: {7 76 0} Flow 174: {8 77 0} Flow 179: {9 77 0} Flow 215: {76 2 0} {2 84 0} 
Flow 215: {10 77 0} Flow 217: {77 5 0} {5 87 0} 
Flow 249: {77 49 0} {49 131 0} 
Flow 255: {75 61 0} {61 143 0} 
Flow 273: {11 77 0} Flow 317: {12 75 0} {75 76 0} Flow 318: {75 77 0} Flow 364: {13 77 0} Flow 382: {14 77 0} Flow 421: {15 77 0} Flow 435: {16 77 0} Flow 440: {17 77 0} Flow 442: {18 77 0} Flow 491: {19 77 0} Flow 526: {20 77 0} Flow 534: {77 11 0} {11 93 0} 
Flow 566: {77 55 0} {55 137 0} 
Flow 586: {21 77 0} Flow 617: {22 77 0} Flow 677: {23 77 0} Flow 688: {24 77 0} Flow 733: {25 77 0} Flow 781: {26 77 0} Flow 813: {27 77 0} Flow 873: {28 77 0} Flow 914: {29 75 0} Flow 921: {30 77 0} Flow 967: {31 77 0} Flow 974: {32 77 0} Flow 975: {33 77 0} Flow 1018: {34 77 0} Flow 1058: {35 77 0} Flow 1064: {37 77 0} Flow 1108: {38 50 0} {50 77 0} Flow 1140: {39 73 0} {73 77 0} Flow 1146: {40 35 0} Flow 1194: {41 45 0} {45 77 0} Flow 1201: {42 77 0} Flow 1262: {43 77 0} Flow 1317: {44 77 0} Flow 1397: {46 77 0} Flow 1402: {47 77 0} Flow 1449: {48 77 0} Flow 1455: {49 77 0} Flow 1494: {51 77 0} Flow 1495: {76 1 0} {1 83 0} 
Flow 1495: {52 75 0} Flow 1498: {76 4 0} {4 86 0} 
Flow 1507: {77 13 0} {13 95 0} 
Flow 1517: {77 23 0} {23 105 0} 
Flow 1518: {77 24 0} {24 106 0} 
Flow 1521: {77 27 0} {27 109 0} 
Flow 1522: {77 28 0} {28 110 0} 
Flow 1532: {77 73 0} {73 39 0} {39 121 0} 
Flow 1533: {35 40 0} {40 122 0} 
Flow 1535: {77 42 0} {42 124 0} 
Flow 1538: {45 127 0} 
Flow 1545: {77 53 0} {53 135 0} 
Flow 1548: {77 56 0} {56 138 0} 
Flow 1550: {75 58 0} {58 140 0} 
Flow 1551: {75 59 0} {59 141 0} 
Flow 1552: {77 60 0} {60 142 0} 
Flow 1556: {77 64 0} {64 146 0} 
Flow 1558: {77 66 0} {66 148 0} 
Flow 1565: {73 155 0} 
Flow 1574: {76 82 0} {82 164 0} 
Flow 1575: {53 77 0} Flow 1609: {54 77 0} Flow 1619: {55 77 0} Flow 1625: {56 77 0} Flow 1630: {57 77 0} Flow 1637: {58 75 0} Flow 1698: {59 75 0} Flow 1700: {60 77 0} Flow 1714: {61 75 0} Flow 1764: {62 77 0} Flow 1769: {63 77 0} Flow 1773: {64 77 0} Flow 1780: {65 77 0} Flow 1782: {66 77 0} Flow 1843: {67 77 0} Flow 1874: {77 32 0} {32 114 0} 
Flow 1924: {68 75 0} Flow 2000: {69 77 0} Flow 2059: {70 77 0} Flow 2102: {71 76 0} Flow 2162: {72 76 0} Flow 2232: {74 77 0} Flow 2532: {78 75 0} Flow 2538: {79 75 0} Flow 2582: {80 75 0} Flow 2586: {81 75 0} Flow 2603: {82 76 0} Time taken running everything: 0 seconds
