networks/zoo_164_2657/zoo_164_2657-lower.sol
<?xml version = "1.0" encoding="UTF-8" standalone="yes"?>
<CPLEXSolution version="1.2">
 <header
   problemName="networks/zoo_164_2657/zoo_164_2657-lower.lp"
   solutionName="incumbent"
   solutionIndex="-1"
   objectiveValue="82"
   solutionTypeValue="3"
   solutionTypeString="primal"
   solutionStatusValue="101"
   solutionStatusString="integer optimal solution"
   solutionMethodString="mip"
   primalFeasible="1"
   dualFeasible="1"
   MIPNodes="0"
   MIPIterations="0"
   writeLevel="3"/>
 <quality
   epInt="1.0000000000000001e-05"
   epRHS="9.9999999999999995e-07"
   maxIntInfeas="0"
   maxPrimalInfeas="0"
   maxX="1"
   maxSlack="1"/>
 <variables>
  <variable name="Y(1,67)" index="66" value="1"/>
  <variable name="Y(2,68)" index="231" value="1"/>
  <variable name="Y(3,75)" index="402" value="1"/>
  <variable name="Y(4,76)" index="567" value="1"/>
  <variable name="Y(5,77)" index="732" value="1"/>
  <variable name="Y(6,35)" index="854" value="1"/>
  <variable name="Y(13,50)" index="2017" value="1"/>
  <variable name="Y(19,3)" index="2954" value="1"/>
  <variable name="Y(20,6)" index="3121" value="1"/>
  <variable name="Y(21,7)" index="3286" value="1"/>
  <variable name="Y(22,8)" index="3451" value="1"/>
  <variable name="Y(23,9)" index="3616" value="1"/>
  <variable name="Y(24,12)" index="3783" value="1"/>
  <variable name="Y(25,14)" index="3949" value="1"/>
  <variable name="Y(26,15)" index="4114" value="1"/>
  <variable name="Y(27,17)" index="4280" value="1"/>
  <variable name="Y(28,20)" index="4447" value="1"/>
  <variable name="Y(29,21)" index="4612" value="1"/>
  <variable name="Y(30,22)" index="4777" value="1"/>
  <variable name="Y(31,25)" index="4944" value="1"/>
  <variable name="Y(32,26)" index="5109" value="1"/>
  <variable name="Y(33,30)" index="5277" value="1"/>
  <variable name="Y(34,31)" index="5442" value="1"/>
  <variable name="Y(35,33)" index="5608" value="1"/>
  <variable name="Y(36,34)" index="5773" value="1"/>
  <variable name="Y(38,36)" index="6103" value="1"/>
  <variable name="Y(39,37)" index="6268" value="1"/>
  <variable name="Y(40,38)" index="6433" value="1"/>
  <variable name="Y(41,41)" index="6600" value="1"/>
  <variable name="Y(42,43)" index="6766" value="1"/>
  <variable name="Y(43,44)" index="6931" value="1"/>
  <variable name="Y(44,46)" index="7097" value="1"/>
  <variable name="Y(45,47)" index="7262" value="1"/>
  <variable name="Y(46,48)" index="7427" value="1"/>
  <variable name="Y(48,51)" index="7758" value="1"/>
  <variable name="Y(49,52)" index="7923" value="1"/>
  <variable name="Y(50,57)" index="8092" value="1"/>
  <variable name="Y(51,62)" index="8261" value="1"/>
  <variable name="Y(52,63)" index="8426" value="1"/>
  <variable name="Y(53,65)" index="8592" value="1"/>
  <variable name="Y(56,69)" index="9088" value="1"/>
  <variable name="Y(57,70)" index="9253" value="1"/>
  <variable name="Y(58,71)" index="9418" value="1"/>
  <variable name="Y(59,72)" index="9583" value="1"/>
  <variable name="Y(60,74)" index="9749" value="1"/>
  <variable name="Y(64,78)" index="10409" value="1"/>
  <variable name="Y(65,80)" index="10575" value="1"/>
  <variable name="Y(66,81)" index="10740" value="1"/>
  <variable name="Y(72,10)" index="11653" value="1"/>
  <variable name="Y(76,16)" index="12315" value="1"/>
  <variable name="Y(78,18)" index="12645" value="1"/>
  <variable name="Y(79,19)" index="12810" value="1"/>
  <variable name="Y(85,29)" index="13804" value="1"/>
  <variable name="Y(103,54)" index="16781" value="1"/>
  <variable name="Y(119,79)" index="19430" value="1"/>
  <variable name="Y(215,2)" index="35097" value="1"/>
  <variable name="Y(217,5)" index="35428" value="1"/>
  <variable name="Y(249,49)" index="40720" value="1"/>
  <variable name="Y(255,61)" index="41716" value="1"/>
  <variable name="Y(534,11)" index="87422" value="1"/>
  <variable name="Y(566,55)" index="92714" value="1"/>
  <variable name="Y(1495,1)" index="245016" value="1"/>
  <variable name="Y(1498,4)" index="245511" value="1"/>
  <variable name="Y(1507,13)" index="246996" value="1"/>
  <variable name="Y(1517,23)" index="248646" value="1"/>
  <variable name="Y(1518,24)" index="248811" value="1"/>
  <variable name="Y(1521,27)" index="249306" value="1"/>
  <variable name="Y(1522,28)" index="249471" value="1"/>
  <variable name="Y(1532,39)" index="251122" value="1"/>
  <variable name="Y(1533,40)" index="251287" value="1"/>
  <variable name="Y(1535,42)" index="251617" value="1"/>
  <variable name="Y(1538,45)" index="252112" value="1"/>
  <variable name="Y(1545,53)" index="253268" value="1"/>
  <variable name="Y(1548,56)" index="253763" value="1"/>
  <variable name="Y(1550,58)" index="254093" value="1"/>
  <variable name="Y(1551,59)" index="254258" value="1"/>
  <variable name="Y(1552,60)" index="254423" value="1"/>
  <variable name="Y(1556,64)" index="255083" value="1"/>
  <variable name="Y(1558,66)" index="255413" value="1"/>
  <variable name="Y(1565,73)" index="256568" value="1"/>
  <variable name="Y(1574,82)" index="258053" value="1"/>
  <variable name="Y(1874,32)" index="307203" value="1"/>
  <variable name="X(1,76,1)" index="435748" value="1"/>
  <variable name="X(1,83,1495)" index="439899" value="1"/>
  <variable name="X(2,76,6)" index="441067" value="1"/>
  <variable name="X(2,84,215)" index="443933" value="1"/>
  <variable name="X(3,76,12)" index="446387" value="1"/>
  <variable name="X(3,85,19)" index="449051" value="1"/>
  <variable name="X(4,76,19)" index="451708" value="1"/>
  <variable name="X(4,86,1498)" index="455844" value="1"/>
  <variable name="X(5,77,67)" index="457070" value="1"/>
  <variable name="X(5,87,217)" index="459877" value="1"/>
  <variable name="X(6,77,122)" index="462439" value="1"/>
  <variable name="X(6,88,20)" index="464994" value="1"/>
  <variable name="X(7,76,127)" index="467758" value="1"/>
  <variable name="X(7,89,21)" index="470309" value="1"/>
  <variable name="X(8,77,174)" index="473119" value="1"/>
  <variable name="X(8,90,22)" index="475624" value="1"/>
  <variable name="X(9,77,179)" index="478438" value="1"/>
  <variable name="X(9,91,23)" index="480939" value="1"/>
  <variable name="X(10,77,215)" index="483788" value="1"/>
  <variable name="X(10,92,72)" index="486302" value="1"/>
  <variable name="X(11,77,273)" index="489160" value="1"/>
  <variable name="X(11,93,534)" index="492078" value="1"/>
  <variable name="X(12,75,317)" index="494518" value="1"/>
  <variable name="X(12,94,24)" index="496882" value="1"/>
  <variable name="X(13,77,364)" index="499879" value="1"/>
  <variable name="X(13,95,1507)" index="503679" value="1"/>
  <variable name="X(14,77,382)" index="505211" value="1"/>
  <variable name="X(14,96,25)" index="507511" value="1"/>
  <variable name="X(15,77,421)" index="510564" value="1"/>
  <variable name="X(15,97,26)" index="512826" value="1"/>
  <variable name="X(16,77,435)" index="515892" value="1"/>
  <variable name="X(16,98,76)" index="518190" value="1"/>
  <variable name="X(17,77,440)" index="521211" value="1"/>
  <variable name="X(17,99,27)" index="523455" value="1"/>
  <variable name="X(18,77,442)" index="526527" value="1"/>
  <variable name="X(18,100,78)" index="528820" value="1"/>
  <variable name="X(19,77,491)" index="531890" value="1"/>
  <variable name="X(19,101,79)" index="534135" value="1"/>
  <variable name="X(20,77,526)" index="537239" value="1"/>
  <variable name="X(20,102,28)" index="539398" value="1"/>
  <variable name="X(21,77,586)" index="542613" value="1"/>
  <variable name="X(21,103,29)" index="544713" value="1"/>
  <variable name="X(22,77,617)" index="547958" value="1"/>
  <variable name="X(22,104,30)" index="550028" value="1"/>
  <variable name="X(23,77,677)" index="553332" value="1"/>
  <variable name="X(23,105,1517)" index="556829" value="1"/>
  <variable name="X(24,77,688)" index="558657" value="1"/>
  <variable name="X(24,106,1518)" index="562144" value="1"/>
  <variable name="X(25,77,733)" index="564016" value="1"/>
  <variable name="X(25,107,31)" index="565971" value="1"/>
  <variable name="X(26,77,781)" index="569378" value="1"/>
  <variable name="X(26,108,32)" index="571286" value="1"/>
  <variable name="X(27,77,813)" index="574724" value="1"/>
  <variable name="X(27,109,1521)" index="578089" value="1"/>
  <variable name="X(28,77,873)" index="580098" value="1"/>
  <variable name="X(28,110,1522)" index="583404" value="1"/>
  <variable name="X(29,75,914)" index="585453" value="1"/>
  <variable name="X(29,111,85)" index="587281" value="1"/>
  <variable name="X(30,77,921)" index="590774" value="1"/>
  <variable name="X(30,112,33)" index="592543" value="1"/>
  <variable name="X(31,77,967)" index="596134" value="1"/>
  <variable name="X(31,113,34)" index="597858" value="1"/>
  <variable name="X(32,77,974)" index="601455" value="1"/>
  <variable name="X(32,114,1874)" index="605012" value="1"/>
  <variable name="X(33,77,975)" index="606770" value="1"/>
  <variable name="X(33,115,35)" index="608487" value="1"/>
  <variable name="X(34,77,1018)" index="612127" value="1"/>
  <variable name="X(34,116,36)" index="613802" value="1"/>
  <variable name="X(35,40,1533)" index="617956" value="1"/>
  <variable name="X(35,77,1058)" index="620138" value="1"/>
  <variable name="X(35,117,6)" index="621743" value="1"/>
  <variable name="X(36,118,38)" index="624432" value="1"/>
  <variable name="X(37,77,1064)" index="628115" value="1"/>
  <variable name="X(37,119,39)" index="629747" value="1"/>
  <variable name="X(38,50,1108)" index="633473" value="1"/>
  <variable name="X(38,120,40)" index="635062" value="1"/>
  <variable name="X(39,73,1140)" index="638819" value="1"/>
  <variable name="X(39,121,1532)" index="641868" value="1"/>
  <variable name="X(40,35,1146)" index="644139" value="1"/>
  <variable name="X(40,122,1533)" index="647183" value="1"/>
  <variable name="X(41,45,1194)" index="649501" value="1"/>
  <variable name="X(41,123,41)" index="651005" value="1"/>
  <variable name="X(42,77,1201)" index="654822" value="1"/>
  <variable name="X(42,124,1535)" index="657813" value="1"/>
  <variable name="X(43,77,1262)" index="660197" value="1"/>
  <variable name="X(43,125,42)" index="661634" value="1"/>
  <variable name="X(44,77,1317)" index="665566" value="1"/>
  <variable name="X(44,126,43)" index="666949" value="1"/>
  <variable name="X(45,41,41)" index="669604" value="1"/>
  <variable name="X(45,77,1194)" index="673414" value="1"/>
  <variable name="X(45,127,1538)" index="676415" value="1"/>
  <variable name="X(46,77,1397)" index="678931" value="1"/>
  <variable name="X(46,128,44)" index="680235" value="1"/>
  <variable name="X(47,77,1402)" index="684250" value="1"/>
  <variable name="X(47,129,45)" index="685550" value="1"/>
  <variable name="X(48,77,1449)" index="689611" value="1"/>
  <variable name="X(48,130,46)" index="690865" value="1"/>
  <variable name="X(49,77,1455)" index="694931" value="1"/>
  <variable name="X(49,131,249)" index="696382" value="1"/>
  <variable name="X(50,38,40)" index="698830" value="1"/>
  <variable name="X(50,77,1108)" index="702555" value="1"/>
  <variable name="X(50,132,13)" index="704117" value="1"/>
  <variable name="X(51,77,1494)" index="708255" value="1"/>
  <variable name="X(51,133,48)" index="709466" value="1"/>
  <variable name="X(52,75,1495)" index="713570" value="1"/>
  <variable name="X(52,134,49)" index="714781" value="1"/>
  <variable name="X(53,77,1575)" index="718964" value="1"/>
  <variable name="X(53,135,1545)" index="721591" value="1"/>
  <variable name="X(54,77,1609)" index="724312" value="1"/>
  <variable name="X(54,136,103)" index="725463" value="1"/>
  <variable name="X(55,77,1619)" index="729636" value="1"/>
  <variable name="X(55,137,566)" index="731240" value="1"/>
  <variable name="X(56,77,1625)" index="734956" value="1"/>
  <variable name="X(56,138,1548)" index="737536" value="1"/>
  <variable name="X(57,77,1630)" index="740275" value="1"/>
  <variable name="X(57,139,50)" index="741352" value="1"/>
  <variable name="X(58,75,1637)" index="745596" value="1"/>
  <variable name="X(58,140,1550)" index="748166" value="1"/>
  <variable name="X(59,75,1698)" index="750971" value="1"/>
  <variable name="X(59,141,1551)" index="753481" value="1"/>
  <variable name="X(60,77,1700)" index="756287" value="1"/>
  <variable name="X(60,142,1552)" index="758796" value="1"/>
  <variable name="X(61,75,1714)" index="761615" value="1"/>
  <variable name="X(61,143,255)" index="762813" value="1"/>
  <variable name="X(62,77,1764)" index="766979" value="1"/>
  <variable name="X(62,144,51)" index="767923" value="1"/>
  <variable name="X(63,77,1769)" index="772298" value="1"/>
  <variable name="X(63,145,52)" index="773238" value="1"/>
  <variable name="X(64,77,1773)" index="777616" value="1"/>
  <variable name="X(64,146,1556)" index="780056" value="1"/>
  <variable name="X(65,77,1780)" index="782937" value="1"/>
  <variable name="X(65,147,53)" index="783867" value="1"/>
  <variable name="X(66,77,1782)" index="788253" value="1"/>
  <variable name="X(66,148,1558)" index="790686" value="1"/>
  <variable name="X(67,77,1843)" index="793628" value="1"/>
  <variable name="X(67,149,1)" index="794443" value="1"/>
  <variable name="X(68,75,1924)" index="799023" value="1"/>
  <variable name="X(68,150,2)" index="799758" value="1"/>
  <variable name="X(69,77,2000)" index="804413" value="1"/>
  <variable name="X(69,151,56)" index="805126" value="1"/>
  <variable name="X(70,77,2059)" index="809786" value="1"/>
  <variable name="X(70,152,57)" index="810441" value="1"/>
  <variable name="X(71,76,2102)" index="815143" value="1"/>
  <variable name="X(71,153,58)" index="815756" value="1"/>
  <variable name="X(72,76,2162)" index="820517" value="1"/>
  <variable name="X(72,154,59)" index="821071" value="1"/>
  <variable name="X(73,39,1532)" index="825201" value="1"/>
  <variable name="X(73,77,1140)" index="827466" value="1"/>
  <variable name="X(73,155,1565)" index="830548" value="1"/>
  <variable name="X(74,77,2232)" index="833872" value="1"/>
  <variable name="X(74,156,60)" index="834357" value="1"/>
  <variable name="X(75,12,24)" index="836978" value="1"/>
  <variable name="X(75,29,85)" index="839696" value="1"/>
  <variable name="X(75,52,49)" index="842317" value="1"/>
  <variable name="X(75,58,1550)" index="846475" value="1"/>
  <variable name="X(75,59,1551)" index="849133" value="1"/>
  <variable name="X(75,61,255)" index="850494" value="1"/>
  <variable name="X(75,68,2)" index="852898" value="1"/>
  <variable name="X(75,76,317)" index="855870" value="1"/>
  <variable name="X(75,77,318)" index="858528" value="1"/>
  <variable name="X(75,78,64)" index="860931" value="1"/>
  <variable name="X(75,79,119)" index="863643" value="1"/>
  <variable name="X(75,80,65)" index="866246" value="1"/>
  <variable name="X(75,81,66)" index="868904" value="1"/>
  <variable name="X(75,157,3)" index="871498" value="1"/>
  <variable name="X(76,1,1495)" index="875647" value="1"/>
  <variable name="X(76,2,215)" index="877024" value="1"/>
  <variable name="X(76,3,19)" index="879485" value="1"/>
  <variable name="X(76,4,1498)" index="883621" value="1"/>
  <variable name="X(76,7,21)" index="884801" value="1"/>
  <variable name="X(76,71,58)" index="887495" value="1"/>
  <variable name="X(76,72,59)" index="890153" value="1"/>
  <variable name="X(76,75,2)" index="892753" value="1"/>
  <variable name="X(76,77,1)" index="895409" value="1"/>
  <variable name="X(76,82,1574)" index="899639" value="1"/>
  <variable name="X(76,158,4)" index="900726" value="1"/>
  <variable name="X(77,5,217)" index="903596" value="1"/>
  <variable name="X(77,6,20)" index="906056" value="1"/>
  <variable name="X(77,8,22)" index="908715" value="1"/>
  <variable name="X(77,9,23)" index="911373" value="1"/>
  <variable name="X(77,10,72)" index="914079" value="1"/>
  <variable name="X(77,11,534)" index="917198" value="1"/>
  <variable name="X(77,13,1507)" index="920828" value="1"/>
  <variable name="X(77,14,25)" index="922003" value="1"/>
  <variable name="X(77,15,26)" index="924661" value="1"/>
  <variable name="X(77,16,76)" index="927368" value="1"/>
  <variable name="X(77,17,27)" index="929976" value="1"/>
  <variable name="X(77,18,78)" index="932684" value="1"/>
  <variable name="X(77,19,79)" index="935342" value="1"/>
  <variable name="X(77,20,28)" index="937948" value="1"/>
  <variable name="X(77,21,29)" index="940606" value="1"/>
  <variable name="X(77,22,30)" index="943264" value="1"/>
  <variable name="X(77,23,1517)" index="947408" value="1"/>
  <variable name="X(77,24,1518)" index="950066" value="1"/>
  <variable name="X(77,25,31)" index="951236" value="1"/>
  <variable name="X(77,26,32)" index="953894" value="1"/>
  <variable name="X(77,27,1521)" index="958040" value="1"/>
  <variable name="X(77,28,1522)" index="960698" value="1"/>
  <variable name="X(77,30,33)" index="961866" value="1"/>
  <variable name="X(77,31,34)" index="964524" value="1"/>
  <variable name="X(77,32,1874)" index="969021" value="1"/>
  <variable name="X(77,33,35)" index="969839" value="1"/>
  <variable name="X(77,34,36)" index="972497" value="1"/>
  <variable name="X(77,35,6)" index="975124" value="1"/>
  <variable name="X(77,36,38)" index="977813" value="1"/>
  <variable name="X(77,37,39)" index="980471" value="1"/>
  <variable name="X(77,42,1535)" index="984624" value="1"/>
  <variable name="X(77,43,42)" index="985788" value="1"/>
  <variable name="X(77,44,43)" index="988446" value="1"/>
  <variable name="X(77,45,41)" index="991101" value="1"/>
  <variable name="X(77,46,44)" index="993761" value="1"/>
  <variable name="X(77,47,45)" index="996419" value="1"/>
  <variable name="X(77,48,46)" index="999077" value="1"/>
  <variable name="X(77,49,249)" index="1001937" value="1"/>
  <variable name="X(77,50,13)" index="1004358" value="1"/>
  <variable name="X(77,51,48)" index="1007050" value="1"/>
  <variable name="X(77,53,1545)" index="1011204" value="1"/>
  <variable name="X(77,54,103)" index="1012419" value="1"/>
  <variable name="X(77,55,566)" index="1015539" value="1"/>
  <variable name="X(77,56,1548)" index="1019178" value="1"/>
  <variable name="X(77,57,50)" index="1020337" value="1"/>
  <variable name="X(77,60,1552)" index="1024496" value="1"/>
  <variable name="X(77,62,51)" index="1025652" value="1"/>
  <variable name="X(77,63,52)" index="1028310" value="1"/>
  <variable name="X(77,64,1556)" index="1032471" value="1"/>
  <variable name="X(77,65,53)" index="1033625" value="1"/>
  <variable name="X(77,66,1558)" index="1037787" value="1"/>
  <variable name="X(77,67,1)" index="1038887" value="1"/>
  <variable name="X(77,69,56)" index="1041599" value="1"/>
  <variable name="X(77,70,57)" index="1044257" value="1"/>
  <variable name="X(77,73,1532)" index="1048389" value="1"/>
  <variable name="X(77,74,60)" index="1049574" value="1"/>
  <variable name="X(77,75,73)" index="1052244" value="1"/>
  <variable name="X(77,76,67)" index="1054895" value="1"/>
  <variable name="X(77,159,5)" index="1057490" value="1"/>
  <variable name="X(78,75,2532)" index="1062674" value="1"/>
  <variable name="X(78,160,64)" index="1062863" value="1"/>
  <variable name="X(79,75,2538)" index="1067994" value="1"/>
  <variable name="X(79,161,119)" index="1068232" value="1"/>
  <variable name="X(80,75,2582)" index="1073352" value="1"/>
  <variable name="X(80,162,65)" index="1073492" value="1"/>
  <variable name="X(81,75,2586)" index="1078670" value="1"/>
  <variable name="X(81,163,66)" index="1078807" value="1"/>
  <variable name="X(82,76,2603)" index="1084001" value="1"/>
  <variable name="X(82,164,1574)" index="1085629" value="1"/>
 </variables>
</CPLEXSolution>
